25338,
24752,
23651,
23202,
21940,
21213,
20480,
20389,
19699,
19161,
18425,
18166,
18100,
17586,
17454,
16783,
16783,
16535,
16270,
16133,
15806,
15738,
15538,
15432,
15432,
15341,
15339,
15199,
15196,
15177,
15003,
14894,
14746,
14724,
14724,
14661,
14661,
14661,
14601,
14601,
14601,
14601,
14601,
14601,
14356,
14356,
14356,
14356,
14356,
14325,
14325,
14318,
14318,
14313,
14313,
14222,
14218,
14100,
14100,
13773,
13655,
13588,
13588,
13580,
13580,
13580,
13571,
13571,
13571,
13571,
13557,
13557,
13557,
13557,
13557,
13532,
13532,
13532,
13067,
13067,
12933,
12933,
12932,
12932,
12932,
12932,
12932,
12932,
12932,
12932,
12932,
12932,
12932,
12874,
12874,
12874,
12874,
12870,
12756,
12753,
12753,
12733,
12702,
12683,
12683,
12683,
12683,
12683,
12618,
12572,
12507,
12507,
12507,
12507,
12507,
12507,
12420,
12420,
12419,
12419,
12419,
12419,
12419,
12419,
12419,
12419,
12324,
12324,
12324,
12324,
12324,
12324,
12324,
12324,
12324,
12324,
12324,
12324,
12324,
12324,
12298,
12298,
12298,
12298,
12298,
12298,
12298,
12298,
12298,
12247,
12247,
12247,
12247,
12247,
12247,
12218,
12218,
12218,
12218,
12218,
12218,
12218,
12218,
12218,
12133,
12133,
12119,
12119,
12090,
12090,
12090,
12090,
12090,
12090,
12090,
12090,
12090,
12090,
12090,
12090,
12090,
12090,
12090,
12090,
12090,
12090,
12090,
12090,
12090,
12090,
12090,
12090,
12084,
12084,
12084,
12084,
12073,
12073,
12073,
12073,
12029,
11931,
11886,
11865,
11865,
11865,
11865,
11865,
11865,
11865,
11865,
11865,
11865,
11865,
11865,
11821,
11821,
11821,
11821,
11821,
11821,
11821,
11821,
11821,
11821,
11821,
11821,
11821,
11821,
11783,
11783,
11783,
11783,
11783,
11783,
11783,
11783,
11783,
11783,
11783,
11783,
11783,
11783,
11783,
11783,
11783,
11783,
11783,
11778,
11778,
11778,
11772,
11772,
11772,
11772,
11772,
11772,
11772,
11772,
11772,
11772,
11772,
11772,
11772,
11772,
11772,
11712,
11712,
11712,
11712,
11712,
11712,
11712,
11712,
11712,
11712,
11712,
11712,
11712,
11712,
11712,
11712,
11712,
11712,
11712,
11712,
11712,
11712,
11712,
11712,
11712,
11712,
11712,
11712,
11712,
11712,
11712,
11712,
11712,
11712,
11712,
11712,
11712,
11712,
11712,
11712,
11712,
11712,
11712,
11712,
11712,
11712,
11712,
11712,
11712,
11712,
11712,
11712,
11712,
11712,
11712,
11712,
11712,
11712,
11712,
11712,
11712,
11712,
11712,
11712,
11712,
11712,
11712,
11712,
11712,
11712,
11712,
11712,
11712,
11712,
11712,
11712,
11712,
11712,
11712,
11712,
11712,
11712,
11712,
11712,
11712,
11712,
11712,
11712,
11712,
11712,
11712,
11712,
11712,
11712,
11712,
11636,
11636,
11636,
11636,
11636,
11624,
11624,
11624,
11624,
11624,
11624,
11624,
11624,
11624,
11624,
11624,
11624,
11589,
11589,
11589,
11589,
11575,
11575,
11575,
11575,
11558,
11558,
11558,
11558,
11558,
11558,
11558,
11558,
11558,
11558,
11558,
11558,
11558,
11558,
11558,
11558,
11558,
11558,
11558,
11558,
11558,
11558,
11556,
11556,
11556,
11556,
11556,
11556,
11556,
11556,
11391,
11391,
11391,
11391,
11391,
11391,
11391,
11391,
11391,
11391,
11391,
11391,
11391,
11391,
11391,
11391,
11391,
11391,
11391,
11391,
11391,
11391,
11391,
11391,
11391,
11377,
11377,
11377,
11377,
11377,
11377,
11377,
11377,
11377,
11377,
11377,
11377,
11377,
11377,
11377,
11377,
11377,
11377,
11377,
11377,
11377,
11377,
11377,
11377,
11374,
11374,
11374,
11374,
11374,
11374,
11374,
11374,
11374,
11374,
11374,
11374,
11374,
11374,
11374,
11374,
11374,
11374,
11374,
11374,
11374,
11374,
11374,
11374,
11358,
11358,
11358,
11342,
11342,
11342,
11342,
11342,
11342,
11342,
11342,
11342,
11342,
11342,
11342,
11342,
11342,
11342,
11342,
11342,
11342,
11342,
11342,
11342,
11342,
11342,
11342,
11342,
11342,
11342,
11342,
11342,
11342,
11342,
11342,
11342,
11342,
11342,
11342,
11342,
11342,
11342,
11342,
11342,
11342,
11342,
11342,
11342,
11342,
11342,
11342,
11342,
11342,
11342,
11342,
11342,
11342,
11342,
11342,
11342,
11342,
11342,
11342,
11342,
11342,
11342,
11342,
11342,
11342,
11342,
11342,
11342,
11342,
11342,
11342,
11342,
11298,
11298,
11298,
11298,
11298,
11298,
11298,
11298,
11298,
11298,
11298,
11298,
11298,
11298,
11298,
11298,
11298,
11298,
11298,
11298,
11298,
11298,
11298,
11298,
11298,
11298,
11298,
11298,
11298,
11298,
11298,
11298,
11298,
11298,
11298,
11298,
11298,
11288,
11288,
11288,
11288,
11288,
11288,
11288,
11288,
11288,
11288,
11288,
11288,
11288,
11288,
11288,
11288,
11288,
11288,
11288,
11288,
11288,
11288,
11288,
11288,
11288,
11288,
11288,
11288,
11288,
11288,
11288,
11288,
11288,
11286,
11286,
11286,
11286,
11286,
11286,
11286,
11286,
11286,
11286,
11286,
11286,
11286,
11286,
11286,
11286,
11286,
11286,
11286,
11286,
11286,
11286,
11286,
11286,
11286,
11286,
11286,
11286,
11286,
11286,
11286,
11286,
11286,
11286,
11286,
11286,
11286,
11286,
11286,
11286,
11286,
11286,
11286,
11286,
11286,
11286,
11286,
11286,
11286,
11286,
11286,
11286,
11286,
11286,
11286,
11286,
11286,
11286,
11286,
11286,
11286,
11286,
11286,
11286,
11286,
11286,
11286,
11286,
11286,
11286,
11286,
11286,
11286,
11286,
11286,
11286,
11286,
11286,
11286,
11286,
11286,
11286,
11286,
11286,
11286,
11286,
11286,
11286,
11286,
11286,
11286,
11286,
11286,
11286,
11286,
11286,
11286,
11286,
11286,
11286,
11286,
11286,
11286,
11286,
11286,
11286,
11286,
11286,
11286,
11286,
11286,
11286,
11286,
11286,
11286,
11286,
11286,
11286,
11286,
11286,
11286,
11286,
11286,
11286,
11286,
11286,
11286,
11286,
11286,
11286,
11286,
11286,
11286,
11286,
11286,
11286,
11286,
11286,
11286,
11286,
11286,
11286,
11286,
11286,
11286,
11286,
11286,
11286,
11286,
11286,
11286,
11286,
11286,
11286,
11286,
11286,
11286,
11286,
11286,
11286,
11286,
11286,
11286,
11286,
11286,
11286,
11286,
11286,
11286,
11286,
11286,
11286,
11286,
11286,
11286,
11286,
11286,
11286,
11286,
11286,
11286,
11286,
11286,
11286,
11286,
11286,
11286,
11286,
11286,
11286,
11286,
11286,
11286,
11286,
11286,
11286,
11286,
11286,
11286,
11286,
11286,
11286,
11286,
11286,
11286,
11286,
11286,
11286,
11286,
11286,
11286,
11286,
11286,
11286,
11286,
11286,
11286,
11286,
11286,
11286,
11286,
11286,
11286,
11286,
11286,
11286,
11286,
11286,
11286,
11286,
11286,
11286,
11286,
11286,
11286,
11286,
11286,
11286,
11286,
11286,
11286,
11286,
11286,
11286,
11286,
11286,
11286,
11286,
11286,
11286,
11286,
11286,
11286,
11286,
11286,
11286,
11286,
11286,
11286,
11286,
11286,
11286,
11286,
11286,
11286,
11286,
11286,
11286,
11286,
11286,
11286,
11286,
11286,
11286,
11286,
11286,
11286,
11286,
11286,
11286,
11286,
11286,
11286,
11286,
11286,
11286,
11286,
11286,
11286,
11286,
11286,
11286,
11286,
11286,
11286,
11286,
11286,
11286,
11286,
11286,
11286,
11286,
11286,
11286,
11286,
11286,
11286,
11286,
11286,
11286,
11286,
11286,
11286,
11286,
11286,
11286,
11286,
11286,
11286,
11286,
11286,
11286,
11286,
11286,
11286,
11286,
11286,
11286,
11286,
11286,
11286,
11286,
11286,
11286,
11286,
11286,
11286,
11286,
11286,
11286,
11286,
11286,
11286,
11286,
11286,
11286,
11286,
11286,
11286,
11286,
11286,
11286,
11286,
11286,
11286,
11286,
11286,
11286,
11286,
11286,
11286,
11286,
11286,
11286,
11286,
11286,
1,
